NAME : tsp_400_sol.txt
COMMENT : OR-Tools Guided Local Search
TYPE : TOUR
DIMENSION : 50
COST : 5813
STATUS : ROUTING_SUCCESS
GAP : 0.00% (Reference Solution)
TOUR_SECTION
1
34
7
2
47
42
6
18
38
4
20
44
30
25
35
23
32
19
10
12
3
48
27
16
45
49
26
8
41
9
43
29
17
46
50
24
14
31
22
21
28
15
13
40
5
36
39
37
11
33
-1
